NAME : LR1_6_9
TYPE : PDPTW
DIMENSION : 150
EDGE_WEIGHT_TYPE : EXACT_2D
NODE_COORD_SECTION
1 1 0
2 150 0
3 0 0
4 10 207
5 242 2
6 77 148
7 3 174
8 1072 10
9 166 123
10 10 0
11 293 -27
12 312 0
13 -10 605
14 0 7
15 647 723
16 8 247
17 866 10
18 152 29
19 10 228
20 216 25
21 0 15
22 -41 1003
23 0 12
24 573 641
25 13 148
26 20 10
27 291 148
28 10 0
29 241 -25
30 10 0
31 -46 741
32 0 17
33 792 851
34 18 266
35 379 10
36 99 226
37 10 0
38 116 -19
39 132 0
40 15 347
41 81 22
42 1068 1135
43 23 17
44 613 10
45 96 86
46 10 0
47 228 2
48 0 270
49 24 174
50 303 27
51 183 251
52 28 16
53 301 10
54 67 175
55 10 94
56 286 17
57 0 460
58 33 88
59 439 32
60 646 692
61 33 26
62 934 10
63 37 14
64 10 0
65 11 34
66 0 33
67 -9 805
68 0 37
69 150 203
70 38 154
71 108 10
72 75 191
73 10 0
74 62 -20
75 346 0
76 -26 455
77 0 42
78 333 391
79 43 99
80 312 10
81 6 168
82 10 440
83 211 22
84 0 18
85 -17 1019
86 0 47
87 663 752
88 48 268
89 871 10
90 29 8
91 10 548
92 89 22
93 0 615
94 -16 378
95 0 52
96 465 547
97 53 282
98 892 10
99 90 44
100 10 55
101 7 25
102 0 54
103 -12 814
104 0 57
105 156 249
106 58 207
107 228 10
108 289 143
109 0 0
110 194 7
111 0 598
112 -22 753
113 0 62
114 534 598
115 63 207
116 534 10
117 136 50
118 10 336
119 221 29
120 0 532
121 -17 805
122 0 67
123 443 505
124 68 206
125 804 10
126 227 5
127 10 0
128 287 -5
129 251 0
130 23 17
131 408 72
132 713 769
133 73 152
134 122 10
135 225 192
136 10 361
137 104 21
138 0 235
139 -15 756
140 0 77
141 256 305
142 78 106
143 252 10
144 73 81
145 10 462
146 232 -14
147 304 0
148 -15 549
149 0 82
150 468 531
PICKUP_AND_DELIVERY_SECTION
1 0 0 0 0 0 0
2 0 0 0 0 1206 0
3 0 0 0 0 0 71
4 0 0 0 0 10 10
5 0 0 0 0 80 80
6 0 0 0 0 0 0
7 0 0 0 0 -17 -17
8 0 0 0 0 0 0
9 0 0 0 0 31 31
10 0 0 0 0 5 5
11 0 0 0 0 571 571
12 0 0 0 0 140 140
13 0 0 0 0 10 10
14 0 0 0 0 203 203
15 0 0 0 0 100 100
16 0 0 0 0 -10 -10
17 0 0 0 0 0 0
18 0 0 0 0 902 902
19 0 0 0 0 10 0
20 0 0 0 0 235 235
21 0 0 0 0 107 107
22 0 0 0 0 10 10
23 0 0 0 0 270 270
24 0 0 0 0 579 579
25 0 0 0 0 24 24
26 0 0 0 0 362 0
27 0 0 0 0 617 617
28 0 0 0 0 15 15
29 0 0 0 0 814 814
30 0 0 0 0 162 162
31 0 0 0 0 10 10
32 0 0 0 0 254 254
33 0 0 0 0 206 206
34 0 0 0 0 -22 -22
35 0 0 0 0 0 0
36 0 0 0 0 306 306
37 0 0 0 0 20 20
38 0 0 0 0 282 282
39 0 0 0 0 110 110
40 0 0 0 0 10 10
41 0 0 0 0 107 107
42 0 0 0 0 173 173
43 0 0 0 0 -22 0
44 0 0 0 0 0 0
45 0 0 0 0 83 83
46 0 0 0 0 25 25
47 0 0 0 0 419 419
48 0 0 0 0 100 100
49 0 0 0 0 10 10
50 0 0 0 0 277 277
51 0 0 0 0 0 0
52 0 0 0 0 17 17
53 0 0 0 0 352 0
54 0 0 0 0 257 257
55 0 0 0 0 30 0
56 0 0 0 0 449 449
57 0 0 0 0 176 176
58 0 0 0 0 10 10
59 0 0 0 0 14 14
60 0 0 0 0 231 231
61 0 0 0 0 -34 -34
62 0 0 0 0 0 0
63 0 0 0 0 212 212
64 0 0 0 0 35 35
65 0 0 0 0 521 521
66 0 0 0 0 74 74
67 0 0 0 0 10 10
68 0 0 0 0 53 53
69 0 0 0 0 0 0
70 0 0 0 0 21 21
71 0 0 0 0 230 0
72 0 0 0 0 85 85
73 0 0 0 0 40 40
74 0 0 0 0 855 855
75 0 0 0 0 209 209
76 0 0 0 0 10 10
77 0 0 0 0 149 149
78 0 0 0 0 266 266
79 0 0 0 0 -5 -5
80 0 0 0 0 0 0
81 0 0 0 0 722 722
82 0 0 0 0 45 0
83 0 0 0 0 245 245
84 0 0 0 0 254 254
85 0 0 0 0 10 10
86 0 0 0 0 175 175
87 0 0 0 0 477 477
88 0 0 0 0 22 22
89 0 0 0 0 427 0
90 0 0 0 0 739 739
91 0 0 0 0 50 0
92 0 0 0 0 873 873
93 0 0 0 0 9 9
94 0 0 0 0 10 10
95 0 0 0 0 294 294
96 0 0 0 0 284 284
97 0 0 0 0 -21 -21
98 0 0 0 0 0 0
99 0 0 0 0 981 981
100 0 0 0 0 55 0
101 0 0 0 0 466 466
102 0 0 0 0 176 176
103 0 0 0 0 10 10
104 0 0 0 0 243 243
105 0 0 0 0 0 0
106 0 0 0 0 13 13
107 0 0 0 0 285 0
108 0 0 0 0 139 139
109 0 0 0 0 60 60
110 0 0 0 0 136 136
111 0 0 0 0 295 295
112 0 0 0 0 10 10
113 0 0 0 0 62 62
114 0 0 0 0 546 546
115 0 0 0 0 -10 -10
116 0 0 0 0 0 0
117 0 0 0 0 239 239
118 0 0 0 0 65 0
119 0 0 0 0 338 338
120 0 0 0 0 208 208
121 0 0 0 0 10 10
122 0 0 0 0 29 29
123 0 0 0 0 544 544
124 0 0 0 0 -15 -15
125 0 0 0 0 0 0
126 0 0 0 0 348 348
127 0 0 0 0 70 70
128 0 0 0 0 1033 1033
129 0 0 0 0 151 151
130 0 0 0 0 10 10
131 0 0 0 0 100 100
132 0 0 0 0 168 168
133 0 0 0 0 10 10
134 0 0 0 0 402 0
135 0 0 0 0 516 516
136 0 0 0 0 75 0
137 0 0 0 0 136 136
138 0 0 0 0 296 296
139 0 0 0 0 10 10
140 0 0 0 0 170 170
141 0 0 0 0 205 205
142 0 0 0 0 21 21
143 0 0 0 0 590 0
144 0 0 0 0 544 544
145 0 0 0 0 80 0
146 0 0 0 0 976 976
147 0 0 0 0 112 112
148 0 0 0 0 10 10
149 0 0 0 0 251 251
150 0 0 0 0 518 518
DEPOT_SECTION
1 
-1
EOF
